20	100	100	100
20	100	100
29	100	100
18	100	100
29	100	100
36	100	100
22	100	100
36	100	100
17	100	100
38	100	100
43	100	100
13	100	100
47	100	100
46	100	100
47	100	100
31	100	100
28	100	100
38	100	100
13	100	100
31	100	100
25	100	100
